c instancia_02  vars=15  clausulas=25  k=2
p cnf 15 25
1 6 0
10 -9 0
-11 -10 0
4 1 0
6 14 0
2 -15 0
12 -3 0
-10 -9 0
11 -8 0
8 11 0
4 -2 0
15 10 0
9 -4 0
-9 5 0
-4 -2 0
1 6 0
7 -14 0
-4 -5 0
4 -2 0
4 -10 0
-13 -2 0
-1 -11 0
2 -12 0
-3 -1 0
-12 4 0
